640.10 0
0 59 85 20 14 15 70 80 19 81 37 57 31 98 69 61 11 60 82 39 12 13 99 86 97 96 58 95 67 33 55 9 32 68 1 38 56 45 48 42 8 41 87 47 49 40 34 10 66 35 88 94 64 92 93 65 6 52 36 46 44 43 63 7 90 71 22 21 23 72 91 24 5 73 16 89 75 4 54 3 74 79 17 29 62 76 78 2 50 77 18 51 100 25 26 53 28 27 84 30 83